217
2849
166
0 2
0 3
0 10
0 12
0 15
0 96
0 99
0 111
0 114
0 126
0 177
1 5
1 9
1 14
1 103
1 112
1 119
1 161
2 3
2 10
2 12
2 15
2 18
2 25
2 30
2 31
2 38
2 40
2 41
2 80
2 96
2 99
2 111
2 114
2 126
2 177
3 10
3 12
3 15
3 18
3 25
3 30
3 31
3 38
3 40
3 41
3 46
3 48
3 50
3 51
3 54
3 57
3 80
3 96
3 99
3 111
3 114
3 126
3 165
3 168
3 177
3 180
3 183
4 6
4 7
4 8
4 11
4 13
4 20
4 21
4 22
4 24
4 34
4 35
4 49
4 94
4 97
4 98
4 100
4 101
4 102
4 106
4 107
4 108
4 113
4 115
4 116
4 117
4 147
4 182
4 197
5 9
5 14
5 19
5 23
5 26
5 27
5 32
5 33
5 36
5 37
5 39
5 42
5 103
5 112
5 119
5 161
6 7
6 8
6 11
6 13
6 20
6 21
6 22
6 24
6 34
6 35
6 49
7 8
7 11
7 13
7 20
7 21
7 22
7 24
7 34
7 35
7 49
7 68
7 69
7 105
7 109
7 118
7 120
7 121
7 122
7 123
8 11
8 13
8 20
8 21
8 22
8 24
8 34
8 35
8 49
8 68
8 69
8 87
8 105
8 109
8 118
8 120
8 121
8 122
8 123
8 127
8 128
8 130
8 131
8 133
8 172
8 186
8 192
8 200
8 212
9 14
9 19
9 23
9 26
9 27
9 32
9 33
9 36
9 37
9 39
9 42
9 53
9 54
9 70
9 75
9 86
9 90
9 91
9 103
9 106
9 112
9 119
9 161
9 171
9 211
10 12
10 15
10 18
10 25
10 30
10 31
10 38
10 40
10 41
10 47
10 52
10 53
10 55
10 56
10 58
10 59
10 72
10 80
10 96
10 99
10 108
10 111
10 114
10 126
10 177
11 13
11 20
11 21
11 22
11 24
11 34
11 35
11 39
11 49
11 68
11 69
11 90
11 105
11 109
11 118
11 120
11 121
11 122
11 123
11 125
11 129
11 134
11 136
11 138
11 143
11 155
11 196
12 15
12 18
12 25
12 30
12 31
12 38
12 40
12 41
12 47
12 52
12 53
12 55
12 56
12 58
12 59
12 72
12 80
12 96
12 99
12 108
12 111
12 114
12 126
12 169
12 170
12 172
12 173
12 174
12 177
12 214
13 20
13 21
13 22
13 24
13 34
13 35
13 49
13 68
13 69
13 91
13 105
13 109
13 118
13 120
13 121
13 122
13 123
13 135
13 137
13 139
13 153
13 154
13 156
13 157
14 19
14 23
14 26
14 27
14 32
14 33
14 36
14 37
14 39
14 42
14 57
14 67
14 71
14 73
14 77
14 84
14 85
14 87
14 88
14 89
14 92
14 93
14 103
14 107
14 112
14 119
14 144
14 152
14 161
15 18
15 25
15 30
15 31
15 38
15 40
15 41
15 47
15 52
15 53
15 55
15 56
15 58
15 59
15 72
15 80
15 96
15 99
15 108
15 111
15 114
15 126
15 160
15 162
15 163
15 166
15 167
15 171
15 175
15 177
15 188
16 20
16 21
16 22
16 24
16 43
16 49
16 60
16 94
16 158
16 161
16 204
17 19
17 23
17 26
17 27
17 45
18 25
18 30
18 31
18 38
18 40
18 41
18 46
18 48
18 50
18 51
18 54
18 57
18 80
18 99
18 114
18 165
18 168
18 180
18 183
19 23
19 26
19 27
19 32
19 33
19 36
19 37
19 39
19 42
19 45
19 103
19 119
20 21
20 22
20 24
20 34
20 35
20 43
20 49
20 60
20 94
20 113
20 115
20 116
20 117
20 147
20 158
20 161
20 182
20 197
20 204
21 22
21 24
21 34
21 35
21 43
21 49
21 60
21 94
21 158
21 161
21 204
22 24
22 34
22 35
22 43
22 49
22 60
22 68
22 69
22 94
22 105
22 109
22 118
22 120
22 121
22 122
22 123
22 158
22 161
22 204
23 26
23 27
23 32
23 33
23 36
23 37
23 39
23 42
23 45
23 53
23 54
23 70
23 75
23 86
23 90
23 91
23 103
23 106
23 119
23 171
23 211
24 34
24 35
24 43
24 49
24 60
24 68
24 69
24 87
24 94
24 105
24 109
24 118
24 120
24 121
24 122
24 123
24 127
24 128
24 130
24 131
24 133
24 158
24 161
24 172
24 186
24 192
24 200
24 204
24 212
25 30
25 31
25 38
25 40
25 41
25 47
25 52
25 53
25 55
25 56
25 58
25 59
25 72
25 80
25 99
25 108
25 114
26 27
26 32
26 33
26 36
26 37
26 39
26 42
26 45
26 57
26 67
26 71
26 73
26 77
26 84
26 85
26 87
26 88
26 89
26 92
26 93
26 103
26 107
26 119
26 135
26 144
26 152
26 154
26 201
26 215
27 32
27 33
27 36
27 37
27 39
27 42
27 45
27 57
27 58
27 67
27 71
27 73
27 77
27 84
27 85
27 87
27 88
27 89
27 92
27 93
27 103
27 107
27 119
27 144
27 152
27 174
27 188
27 210
27 212
27 216
28 34
28 35
28 74
28 140
28 203
29 30
29 31
29 38
29 40
29 41
29 76
29 80
29 141
29 160
29 191
30 31
30 38
30 40
30 41
30 76
30 80
30 99
30 114
30 141
30 160
30 191
31 38
31 40
31 41
31 46
31 48
31 50
31 51
31 54
31 57
31 76
31 80
31 99
31 114
31 141
31 160
31 165
31 168
31 180
31 183
31 191
32 33
32 36
32 37
32 39
32 42
32 79
32 81
32 82
32 83
32 103
32 119
32 128
32 130
32 145
32 148
32 149
32 163
32 166
32 206
32 208
32 209
33 36
33 37
33 39
33 42
33 103
33 119
34 35
34 49
34 74
34 113
34 115
34 116
34 117
34 140
34 147
34 182
34 197
34 203
35 49
35 74
35 140
35 203
36 37
36 39
36 42
36 53
36 54
36 70
36 75
36 86
36 90
36 91
36 103
36 106
36 119
36 143
36 147
36 150
36 151
36 153
36 154
36 155
36 156
36 157
36 171
36 211
37 39
37 42
37 53
37 54
37 70
37 75
37 86
37 90
37 91
37 103
37 106
37 119
37 171
37 211
38 40
38 41
38 47
38 52
38 53
38 55
38 56
38 58
38 59
38 72
38 76
38 80
38 99
38 108
38 114
38 141
38 160
38 191
39 42
39 53
39 54
39 70
39 75
39 86
39 90
39 91
39 103
39 106
39 109
39 119
39 120
39 123
39 125
39 129
39 134
39 136
39 138
39 143
39 147
39 150
39 151
39 153
39 154
39 155
39 156
39 157
39 171
39 196
39 211
40 41
40 47
40 52
40 53
40 55
40 56
40 58
40 59
40 72
40 76
40 80
40 99
40 108
40 114
40 141
40 160
40 169
40 170
40 172
40 173
40 174
40 191
40 214
41 47
41 52
41 53
41 55
41 56
41 58
41 59
41 72
41 76
41 80
41 99
41 108
41 114
41 141
41 160
41 162
41 163
41 166
41 167
41 171
41 175
41 188
41 191
42 57
42 67
42 71
42 73
42 77
42 84
42 85
42 87
42 88
42 89
42 92
42 93
42 103
42 107
42 119
42 144
42 152
43 44
43 45
43 49
43 60
43 61
43 77
43 94
43 97
43 125
43 158
43 159
43 161
43 178
43 204
43 205
43 206
44 45
44 49
44 60
44 61
44 77
44 94
44 97
44 125
44 158
44 159
44 161
44 178
44 204
44 205
44 206
45 49
45 60
45 61
45 77
45 94
45 97
45 125
45 158
45 159
45 161
45 178
45 204
45 205
45 206
46 48
46 50
46 51
46 54
46 57
46 165
46 168
46 180
46 183
47 52
47 53
47 55
47 56
47 58
47 59
47 72
47 108
47 160
47 162
47 163
47 166
47 167
47 171
47 175
47 179
47 181
47 188
47 191
47 193
47 195
47 196
47 203
47 206
47 208
47 209
47 211
48 50
48 51
48 54
48 57
48 62
48 64
48 67
48 70
48 71
48 73
48 98
48 102
48 106
48 107
48 116
48 165
48 168
48 180
48 183
49 60
49 61
49 77
49 94
49 97
49 113
49 115
49 116
49 117
49 125
49 147
49 158
49 159
49 161
49 178
49 182
49 197
49 204
49 205
49 206
50 51
50 54
50 57
50 65
50 66
50 68
50 69
50 82
50 83
50 148
50 149
50 165
50 168
50 180
50 183
50 209
51 54
51 57
51 65
51 66
51 68
51 69
51 82
51 83
51 95
51 96
51 99
51 103
51 104
51 105
51 109
51 148
51 149
51 165
51 168
51 180
51 183
51 209
52 53
52 55
52 56
52 58
52 59
52 72
52 84
52 87
52 108
52 169
52 170
52 172
52 173
52 174
52 176
52 177
52 182
52 184
52 185
52 186
52 214
53 54
53 55
53 56
53 58
53 59
53 70
53 72
53 75
53 86
53 90
53 91
53 106
53 108
53 119
53 160
53 162
53 163
53 166
53 167
53 171
53 175
53 179
53 181
53 188
53 191
53 193
53 195
53 196
53 203
53 206
53 208
53 209
53 211
54 57
54 62
54 64
54 67
54 70
54 71
54 73
54 75
54 86
54 90
54 91
54 98
54 102
54 106
54 107
54 116
54 119
54 165
54 168
54 171
54 180
54 183
54 211
55 56
55 58
55 59
55 72
55 108
56 58
56 59
56 72
56 108
56 169
56 170
56 172
56 173
56 174
56 214
57 58
57 62
57 64
57 67
57 70
57 71
57 73
57 77
57 84
57 85
57 87
57 88
57 89
57 92
57 93
57 98
57 102
57 106
57 107
57 116
57 144
57 152
57 165
57 168
57 174
57 180
57 183
57 188
57 210
57 212
57 216
58 59
58 67
58 71
58 72
58 85
58 92
58 108
58 160
58 162
58 163
58 166
58 167
58 171
58 174
58 175
58 188
58 210
58 212
58 216
59 72
59 108
59 160
59 162
59 163
59 166
59 167
59 171
59 175
59 188
60 61
60 63
60 72
60 77
60 79
60 94
60 97
60 100
60 108
60 113
60 125
60 128
60 158
60 159
60 161
60 163
60 178
60 204
60 205
60 206
61 63
61 72
61 77
61 79
61 94
61 97
61 100
61 108
61 113
61 125
61 128
61 158
61 159
61 161
61 163
61 178
61 204
61 205
61 206
62 64
62 67
62 70
62 71
62 73
62 74
62 76
62 78
62 80
62 98
62 102
62 106
62 107
62 116
62 127
62 140
62 141
62 142
62 160
62 162
62 179
62 191
62 192
62 193
62 203
63 72
63 79
63 94
63 97
63 100
63 108
63 113
63 128
63 163
63 206
64 67
64 70
64 71
64 73
64 98
64 102
64 106
64 107
64 116
65 66
65 68
65 69
65 82
65 83
65 148
65 149
65 168
65 183
65 209
66 68
66 69
66 82
66 83
66 95
66 96
66 99
66 103
66 104
66 105
66 109
66 148
66 149
66 168
66 183
66 209
67 70
67 71
67 73
67 77
67 84
67 85
67 87
67 88
67 89
67 92
67 93
67 98
67 102
67 106
67 107
67 116
67 144
67 152
67 174
67 188
67 190
67 192
67 196
67 197
67 198
67 199
67 200
67 210
67 212
67 216
68 69
68 82
68 83
68 95
68 96
68 99
68 103
68 104
68 105
68 109
68 118
68 120
68 121
68 122
68 123
68 148
68 149
68 168
68 183
68 209
69 82
69 83
69 87
69 95
69 96
69 99
69 103
69 104
69 105
69 109
69 118
69 120
69 121
69 122
69 123
69 127
69 128
69 130
69 131
69 133
69 148
69 149
69 168
69 172
69 183
69 186
69 192
69 200
69 209
69 212
70 71
70 73
70 75
70 86
70 90
70 91
70 98
70 102
70 106
70 107
70 116
70 119
70 171
70 211
71 73
71 77
71 84
71 85
71 87
71 88
71 89
71 92
71 93
71 98
71 102
71 106
71 107
71 116
71 144
71 152
71 174
71 188
71 210
71 212
71 216
72 79
72 94
72 97
72 100
72 108
72 113
72 128
72 160
72 162
72 163
72 166
72 167
72 171
72 175
72 188
72 206
73 77
73 84
73 85
73 87
73 88
73 89
73 92
73 93
73 98
73 102
73 106
73 107
73 116
73 144
73 152
74 76
74 78
74 80
74 98
74 127
74 140
74 141
74 142
74 160
74 162
74 179
74 191
74 192
74 193
74 203
75 86
75 90
75 91
75 95
75 96
75 99
75 103
75 106
75 110
75 111
75 112
75 114
75 119
75 124
75 126
75 132
75 143
75 147
75 150
75 151
75 153
75 154
75 155
75 156
75 157
75 169
75 171
75 176
75 177
75 182
75 184
75 190
75 197
75 198
75 210
75 211
76 78
76 80
76 98
76 127
76 140
76 141
76 142
76 160
76 162
76 179
76 191
76 192
76 193
76 203
77 84
77 85
77 87
77 88
77 89
77 92
77 93
77 94
77 97
77 107
77 125
77 129
77 143
77 144
77 152
77 153
77 158
77 159
77 161
77 164
77 165
77 168
77 178
77 180
77 183
77 194
77 204
77 205
77 206
77 207
77 213
77 214
78 80
78 98
78 127
78 140
78 141
78 142
78 160
78 162
78 179
78 191
78 192
78 193
78 203
79 81
79 82
79 83
79 94
79 97
79 100
79 108
79 113
79 128
79 130
79 145
79 148
79 149
79 163
79 166
79 206
79 208
79 209
80 98
80 99
80 114
80 127
80 140
80 141
80 142
80 160
80 162
80 179
80 191
80 192
80 193
80 203
81 82
81 83
81 128
81 130
81 145
81 148
81 149
81 163
81 166
81 206
81 208
81 209
82 83
82 128
82 130
82 145
82 148
82 149
82 163
82 166
82 168
82 183
82 206
82 208
82 209
83 95
83 96
83 99
83 103
83 104
83 105
83 109
83 128
83 130
83 145
83 148
83 149
83 163
83 166
83 168
83 183
83 206
83 208
83 209
84 85
84 87
84 88
84 89
84 92
84 93
84 107
84 135
84 144
84 152
84 154
84 169
84 170
84 172
84 176
84 177
84 182
84 184
84 185
84 186
84 201
84 215
85 87
85 88
85 89
85 92
85 93
85 107
85 144
85 152
85 174
85 188
85 190
85 192
85 196
85 197
85 198
85 199
85 200
85 210
85 212
85 216
86 90
86 91
86 106
86 119
86 171
86 211
87 88
87 89
87 92
87 93
87 107
87 127
87 128
87 130
87 131
87 133
87 135
87 144
87 152
87 154
87 169
87 170
87 172
87 176
87 177
87 182
87 184
87 185
87 186
87 192
87 200
87 201
87 212
87 215
88 89
88 92
88 93
88 107
88 144
88 152
88 153
88 194
88 204
88 205
88 207
88 213
88 214
89 92
89 93
89 107
89 135
89 144
89 152
89 154
89 201
89 215
90 91
90 106
90 109
90 119
90 120
90 123
90 125
90 129
90 134
90 136
90 138
90 143
90 147
90 150
90 151
90 153
90 154
90 155
90 156
90 157
90 171
90 196
90 211
91 106
91 119
91 121
91 122
91 135
91 137
91 139
91 143
91 147
91 150
91 151
91 153
91 154
91 155
91 156
91 157
91 171
91 211
92 93
92 107
92 144
92 152
92 174
92 188
92 210
92 212
92 216
93 107
93 144
93 152
94 97
94 98
94 100
94 101
94 102
94 106
94 107
94 108
94 113
94 115
94 116
94 125
94 128
94 158
94 159
94 161
94 163
94 178
94 204
94 205
94 206
95 96
95 99
95 103
95 104
95 105
95 109
95 110
95 111
95 112
95 114
95 119
95 124
95 126
95 149
95 176
95 177
95 190
96 99
96 103
96 104
96 105
96 109
96 110
96 111
96 112
96 114
96 119
96 124
96 126
96 149
96 176
96 177
96 190
97 98
97 100
97 101
97 102
97 106
97 107
97 108
97 113
97 115
97 116
97 125
97 128
97 158
97 159
97 161
97 163
97 178
97 204
97 205
97 206
98 100
98 101
98 102
98 106
98 107
98 108
98 113
98 115
98 116
98 127
98 140
98 141
98 142
98 160
98 162
98 179
98 191
98 192
98 193
98 203
99 103
99 104
99 105
99 109
99 110
99 111
99 112
99 114
99 119
99 124
99 126
99 149
99 176
99 177
99 190
100 101
100 102
100 106
100 107
100 108
100 113
100 115
100 116
100 128
100 163
100 206
101 102
101 106
101 107
101 108
101 113
101 115
101 116
102 106
102 107
102 108
102 113
102 115
102 116
103 104
103 105
103 109
103 110
103 111
103 112
103 114
103 119
103 124
103 126
103 149
103 161
103 176
103 177
103 190
104 105
104 109
104 149
105 109
105 118
105 120
105 121
105 122
105 123
105 149
106 107
106 108
106 113
106 115
106 116
106 119
106 171
106 211
107 108
107 113
107 115
107 116
107 144
107 152
107 153
107 194
107 204
107 205
107 207
107 213
107 214
108 113
108 115
108 116
108 128
108 163
108 206
109 118
109 120
109 121
109 122
109 123
109 125
109 129
109 134
109 136
109 138
109 143
109 149
109 155
109 196
110 111
110 112
110 114
110 119
110 124
110 126
110 176
110 177
110 190
111 112
111 114
111 119
111 124
111 126
111 176
111 177
111 190
112 114
112 119
112 124
112 126
112 161
112 176
112 177
112 190
113 115
113 116
113 117
113 128
113 147
113 163
113 182
113 197
113 206
114 119
114 124
114 126
114 176
114 177
114 190
115 116
115 117
115 147
115 182
115 197
116 117
116 147
116 182
116 197
117 147
117 182
117 197
118 120
118 121
118 122
118 123
119 124
119 126
119 161
119 171
119 176
119 177
119 190
119 211
120 121
120 122
120 123
120 125
120 129
120 134
120 136
120 138
120 143
120 155
120 178
120 180
120 183
120 187
120 188
120 196
121 122
121 123
121 135
121 137
121 139
121 153
121 154
121 156
121 157
122 123
122 135
122 137
122 139
122 153
122 154
122 156
122 157
122 191
122 193
122 194
122 195
122 201
122 202
123 125
123 129
123 134
123 136
123 138
123 143
123 155
123 174
123 179
123 181
123 189
123 196
124 126
124 132
124 147
124 150
124 169
124 176
124 177
124 182
124 184
124 190
124 197
124 198
124 210
125 129
125 134
125 136
125 138
125 143
125 144
125 155
125 158
125 159
125 161
125 164
125 165
125 168
125 178
125 180
125 183
125 187
125 188
125 194
125 196
125 204
125 205
125 206
125 207
126 132
126 147
126 150
126 169
126 176
126 177
126 182
126 184
126 190
126 197
126 198
126 210
127 128
127 130
127 131
127 133
127 140
127 141
127 142
127 144
127 145
127 146
127 148
127 149
127 152
127 160
127 162
127 172
127 179
127 186
127 191
127 192
127 193
127 200
127 203
127 212
128 130
128 131
128 133
128 140
128 141
128 142
128 144
128 145
128 146
128 148
128 149
128 152
128 163
128 166
128 172
128 186
128 192
128 200
128 206
128 208
128 209
128 212
129 134
129 136
129 138
129 143
129 144
129 155
129 158
129 159
129 161
129 164
129 165
129 168
129 178
129 180
129 183
129 187
129 188
129 194
129 196
129 204
129 205
129 207
130 131
130 133
130 140
130 141
130 142
130 144
130 145
130 146
130 148
130 149
130 152
130 163
130 166
130 172
130 186
130 192
130 200
130 206
130 208
130 209
130 212
131 133
131 140
131 141
131 142
131 144
131 145
131 146
131 148
131 149
131 152
131 172
131 186
131 192
131 200
131 212
132 147
132 150
132 169
132 176
132 177
132 182
132 184
132 190
132 197
132 198
132 210
133 172
133 186
133 192
133 200
133 212
134 136
134 138
134 143
134 155
134 178
134 180
134 183
134 187
134 188
134 196
135 137
135 139
135 153
135 154
135 156
135 157
135 191
135 193
135 194
135 195
135 201
135 202
135 215
136 138
136 143
136 155
136 196
137 139
137 153
137 154
137 156
137 157
138 143
138 155
138 174
138 179
138 181
138 189
138 196
139 153
139 154
139 156
139 157
139 191
139 193
139 194
139 195
139 201
139 202
140 141
140 142
140 144
140 145
140 146
140 148
140 149
140 152
140 160
140 162
140 179
140 191
140 192
140 193
140 203
141 142
141 144
141 145
141 146
141 148
141 149
141 152
141 160
141 162
141 179
141 191
141 192
141 193
141 203
142 144
142 145
142 146
142 148
142 149
142 152
142 160
142 162
142 179
142 191
142 192
142 193
142 203
143 144
143 147
143 150
143 151
143 153
143 154
143 155
143 156
143 157
143 158
143 159
143 161
143 164
143 165
143 168
143 178
143 180
143 183
143 187
143 188
143 194
143 196
143 204
143 205
143 207
144 145
144 146
144 148
144 149
144 152
144 153
144 158
144 159
144 161
144 164
144 165
144 168
144 178
144 180
144 183
144 192
144 194
144 204
144 205
144 207
144 213
144 214
145 146
145 148
145 149
145 152
145 163
145 166
145 192
145 206
145 208
145 209
146 148
146 149
146 152
146 192
147 150
147 151
147 153
147 154
147 155
147 156
147 157
147 169
147 176
147 177
147 182
147 184
147 190
147 197
147 198
147 210
148 149
148 152
148 163
148 166
148 168
148 183
148 192
148 206
148 208
148 209
149 152
149 163
149 166
149 168
149 183
149 192
149 206
149 208
149 209
150 151
150 153
150 154
150 155
150 156
150 157
150 169
150 176
150 177
150 182
150 184
150 190
150 197
150 198
150 210
151 153
151 154
151 155
151 156
151 157
152 153
152 192
152 194
152 204
152 205
152 207
152 213
152 214
153 154
153 155
153 156
153 157
153 191
153 193
153 194
153 195
153 201
153 202
153 204
153 205
153 207
153 213
153 214
154 155
154 156
154 157
154 191
154 193
154 194
154 195
154 201
154 202
154 215
155 156
155 157
155 196
156 157
157 191
157 193
157 194
157 195
157 201
157 202
158 159
158 161
158 164
158 165
158 168
158 178
158 180
158 183
158 194
158 204
158 205
158 206
158 207
159 161
159 164
159 165
159 168
159 178
159 180
159 183
159 194
159 204
159 205
159 206
159 207
160 162
160 163
160 166
160 167
160 171
160 175
160 179
160 181
160 188
160 191
160 192
160 193
160 195
160 196
160 203
160 206
160 208
160 209
160 211
161 164
161 165
161 168
161 178
161 180
161 183
161 194
161 204
161 205
161 206
161 207
162 163
162 166
162 167
162 171
162 175
162 179
162 181
162 188
162 191
162 192
162 193
162 195
162 196
162 203
162 206
162 208
162 209
162 211
163 166
163 167
163 171
163 175
163 179
163 181
163 188
163 191
163 193
163 195
163 196
163 203
163 206
163 208
163 209
163 211
164 165
164 168
164 178
164 180
164 183
164 194
164 204
164 205
164 207
165 168
165 178
165 180
165 183
165 194
165 204
165 205
165 207
166 167
166 171
166 175
166 179
166 181
166 188
166 191
166 193
166 195
166 196
166 203
166 206
166 208
166 209
166 211
167 171
167 175
167 179
167 181
167 188
167 191
167 193
167 195
167 196
167 203
167 206
167 208
167 209
167 211
168 178
168 180
168 183
168 194
168 204
168 205
168 207
168 209
169 170
169 172
169 173
169 174
169 176
169 177
169 182
169 184
169 185
169 186
169 190
169 197
169 198
169 210
169 214
170 172
170 173
170 174
170 176
170 177
170 182
170 184
170 185
170 186
170 214
171 175
171 179
171 181
171 188
171 191
171 193
171 195
171 196
171 203
171 206
171 208
171 209
171 211
172 173
172 174
172 176
172 177
172 182
172 184
172 185
172 186
172 192
172 200
172 212
172 214
173 174
173 214
174 179
174 181
174 188
174 189
174 196
174 210
174 212
174 214
174 216
175 188
176 177
176 182
176 184
176 185
176 186
176 190
176 197
176 198
176 210
177 182
177 184
177 185
177 186
177 190
177 197
177 198
177 210
178 180
178 183
178 187
178 188
178 194
178 204
178 205
178 206
178 207
179 181
179 189
179 191
179 192
179 193
179 195
179 196
179 203
179 206
179 208
179 209
179 211
180 183
180 187
180 188
180 194
180 204
180 205
180 207
181 189
181 191
181 193
181 195
181 196
181 203
181 206
181 208
181 209
181 211
182 184
182 185
182 186
182 190
182 197
182 198
182 210
183 187
183 188
183 194
183 204
183 205
183 207
183 209
184 185
184 186
184 190
184 197
184 198
184 210
185 186
186 192
186 200
186 212
187 188
188 210
188 212
188 216
189 196
190 192
190 196
190 197
190 198
190 199
190 200
190 210
190 212
191 192
191 193
191 194
191 195
191 196
191 201
191 202
191 203
191 206
191 208
191 209
191 211
192 193
192 196
192 197
192 198
192 199
192 200
192 203
192 210
192 212
193 194
193 195
193 196
193 201
193 202
193 203
193 206
193 208
193 209
193 211
194 195
194 201
194 202
194 204
194 205
194 207
194 213
194 214
195 196
195 201
195 202
195 203
195 206
195 208
195 209
195 211
196 197
196 198
196 199
196 200
196 203
196 206
196 208
196 209
196 210
196 211
196 212
197 198
197 199
197 200
197 210
197 212
198 199
198 200
198 210
198 212
199 200
199 210
199 212
200 210
200 212
201 202
201 215
203 206
203 208
203 209
203 211
204 205
204 206
204 207
204 213
204 214
205 206
205 207
205 213
205 214
206 208
206 209
206 211
207 213
207 214
208 209
208 211
209 211
210 212
210 216
212 216
213 214
0
1
2
3 4
5
6
7
8 9
10
11 12
13
14 15
16
17
18
19
20
21
22
23 24
25
26
27
28
29
30
31 32
33
34
35
36
37
38
39 40
41 42
43
44
45
46
47 48
49 50
51
52
53 54
55
56
57 58
59
60
61
62
63
64
65
66
67 68
69 70
71
72 73
74 75
76 77
78
79 80
81
82
83
84 85
86 87
88
89 90
91 92
93
94 95
96 97
98
99 100
101
102 103
104
105
106
107 108
109
110
111
112
113 114
115
116
117
118
119
120
121
122 123
124
125 126
127
128 129
130
131
132
133
134
135 136
137
138 139
140
141
142
143 144
145
146
147 148
149 150
151
152 153
154 155
156
157
158
159 160
161 162
163 164
165 166
167
168
169
170
171 172
173
174
175
176
177 178
179
180
181
182 183
184
185
186
187
188
189
190
191
192 193
194
195 196
197
198
199
200
201
202
203 204
205 206
207
208
209
210
211 212
213
214 215
216
